NAME : random_1
COMMENT : 40 random nodes
TYPE : TSP
DIMENSION : 40
EDGE_WEIGHT_TYPE : EUC_2D
NODE_COORD_SECTION
1 338 399
2 306 270
3 547 174
4 905 80
5 546 501
6 405 125
7 934 873
8 650 115
9 244 706
10 774 915
11 877 276
12 719 145
13 986 923
14 477 177
15 356 432
16 824 955
17 656 17
18 519 736
19 890 105
20 163 397
21 783 939
22 341 36
23 415 888
24 663 27
25 163 529
26 941 615
27 660 289
28 633 638
29 280 605
30 442 925
31 418 902
32 324 219
33 416 178
34 997 367
35 882 313
36 143 699
37 853 923
38 512 645
39 362 531
40 324 904
EOF